c Generated map
c Size: 9 * 9, weights in range: 1 to 10, walls: True, with ratio 0.05
c dim 1 of 7
c
p sp 81 130
c graph contains 81 nodes and 130 arcs
c
a 1 10 3
a 10 1 3
a 1 2 4
a 2 1 4
a 2 11 8
a 11 2 8
a 2 3 8
a 3 2 8
a 3 12 5
a 12 3 5
a 3 4 1
a 4 3 1
a 4 13 7
a 13 4 7
a 4 5 5
a 5 4 5
a 5 14 2
a 14 5 2
a 5 6 9
a 6 5 9
a 6 15 8
a 15 6 8
a 6 7 10
a 7 6 10
a 7 8 1
a 8 7 1
a 8 17 8
a 17 8 8
a 8 9 7
a 9 8 7
a 9 18 4
a 18 9 4
a 10 19 10
a 19 10 10
a 10 11 10
a 11 10 10
a 11 20 1
a 20 11 1
a 11 12 9
a 12 11 9
a 12 21 3
a 21 12 3
a 12 13 8
a 13 12 8
a 13 22 1
a 22 13 1
a 13 14 6
a 14 13 6
a 14 23 7
a 23 14 7
a 14 15 1
a 15 14 1
a 15 24 5
a 24 15 5
a 17 26 9
a 26 17 9
a 17 18 3
a 18 17 3
a 18 27 1
a 27 18 1
a 19 28 8
a 28 19 8
a 19 20 8
a 20 19 8
a 20 29 10
a 29 20 10
a 20 21 5
a 21 20 5
a 21 30 4
a 30 21 4
a 21 22 7
a 22 21 7
a 22 31 5
a 31 22 5
a 22 23 4
a 23 22 4
a 23 32 5
a 32 23 5
a 23 24 1
a 24 23 1
a 24 33 1
a 33 24 1
a 24 25 8
a 25 24 8
a 25 34 10
a 34 25 10
a 25 26 2
a 26 25 2
a 26 35 8
a 35 26 8
a 26 27 1
a 27 26 1
a 27 36 8
a 36 27 8
a 28 37 3
a 37 28 3
a 28 29 4
a 29 28 4
a 29 38 4
a 38 29 4
a 29 30 4
a 30 29 4
a 30 39 7
a 39 30 7
a 30 31 10
a 31 30 10
a 31 40 10
a 40 31 10
a 31 32 1
a 32 31 1
a 32 41 6
a 41 32 6
a 32 33 1
a 33 32 1
a 33 42 10
a 42 33 10
a 33 34 7
a 34 33 7
a 34 43 10
a 43 34 10
a 34 35 1
a 35 34 1
a 35 44 7
a 44 35 7
a 35 36 10
a 36 35 10
a 36 45 9
a 45 36 9
a 37 46 3
a 46 37 3
a 37 38 4
a 38 37 4
a 38 47 10
a 47 38 10
a 38 39 3
a 39 38 3
a 39 48 1
a 48 39 1
a 39 40 2
a 40 39 2
a 40 41 2
a 41 40 2
a 41 50 10
a 50 41 10
a 41 42 7
a 42 41 7
a 42 51 1
a 51 42 1
a 42 43 2
a 43 42 2
a 43 52 9
a 52 43 9
a 43 44 8
a 44 43 8
a 44 53 7
a 53 44 7
a 44 45 10
a 45 44 10
a 45 54 3
a 54 45 3
a 46 55 7
a 55 46 7
a 46 47 3
a 47 46 3
a 47 56 10
a 56 47 10
a 47 48 8
a 48 47 8
a 48 57 3
a 57 48 3
a 50 59 8
a 59 50 8
a 50 51 3
a 51 50 3
a 51 60 9
a 60 51 9
a 51 52 5
a 52 51 5
a 52 61 4
a 61 52 4
a 52 53 9
a 53 52 9
a 53 62 9
a 62 53 9
a 53 54 6
a 54 53 6
a 54 63 2
a 63 54 2
a 55 64 8
a 64 55 8
a 55 56 8
a 56 55 8
a 56 65 6
a 65 56 6
a 56 57 6
a 57 56 6
a 57 66 6
a 66 57 6
a 57 58 2
a 58 57 2
a 58 59 3
a 59 58 3
a 59 68 8
a 68 59 8
a 59 60 1
a 60 59 1
a 60 69 2
a 69 60 2
a 60 61 10
a 61 60 10
a 61 70 7
a 70 61 7
a 61 62 4
a 62 61 4
a 62 71 2
a 71 62 2
a 62 63 3
a 63 62 3
a 63 72 1
a 72 63 1
a 64 65 1
a 65 64 1
a 65 74 10
a 74 65 10
a 65 66 3
a 66 65 3
a 66 75 2
a 75 66 2
a 68 77 3
a 77 68 3
a 68 69 9
a 69 68 9
a 69 78 5
a 78 69 5
a 69 70 2
a 70 69 2
a 70 79 8
a 79 70 8
a 70 71 10
a 71 70 10
a 71 80 3
a 80 71 3
a 71 72 10
a 72 71 10
a 72 81 5
a 81 72 5
a 74 75 9
a 75 74 9
a 75 76 10
a 76 75 10
a 76 77 5
a 77 76 5
a 77 78 5
a 78 77 5
a 78 79 8
a 79 78 8
a 79 80 4
a 80 79 4
a 80 81 7
a 81 80 7
